benchmarks_vrp/CMT5/min_c/CMT5_3.vrp
NAME: CMT5_3
TYPE: CVRP
COMMENT: 1291.29 - Cluster Nr.3
DIMENSION: 11
CAPACITY: 200
EDGE_WEIGHT_TYPE: EUC_2D
NODE_COORD_TYPE: TWOD_COORDS
NODE_COORD_SECTION: 
5 37 47
1 41 49
2 37 56
4 37 52
8 31 52
9 42 57
6 35 35
7 38 46
10 41 46
11 33 44
3 35 51
DEPOT_SECTION: 
6
-1
DEMAND_SECTION: 
6 0
2 5
7 12
4 7
11 20
10 18
3 16
5 6
8 27
9 8
1 10
EOF
