benchmarks_vrp/CMT5/min_c/CMT5_3.tour
NAME: CMT5_3 solution
TYPE: TOUR
TOUR_SECTION:
6 7 5 10 1 9 2 4 3 8 11 -1
-1
EOF